(set-info :smt-lib-version 2.6)
(set-logic QF_FP)
(set-option :produce-models true)
(set-info :source |Random FP created by PyMPF|)
(set-info :license |https://www.gnu.org/licenses/gpl-3.0.html|)
(set-info :category random)
(set-info :status sat)
(declare-const x Float32)
(assert (= x (fp #b1 #b10000001 #b10111110100101100101101)))
;; x should be Float32(0xC0DF4B2D [Rational(-14633773, 2097152), -6.977927])

(declare-const y Float32)
(assert (= y ((_ to_fp 8 24) #x7F800000)))
;; y should be Float32(+oo)

(declare-const result Float32)
(assert (= result (fp.add RNA x y)))
(assert (= result ((_ to_fp 8 24) #x7F800000)))
(check-sat)
(exit)
